
******************************************************************************
This program contains Ipopt, a library for large-scale nonlinear optimization.
 Ipopt is released as open source code under the Eclipse Public License (EPL).
         For more information visit http://projects.coin-or.org/Ipopt
******************************************************************************

This is Ipopt version 3.12.6, running with linear solver ma57.

Number of nonzeros in equality constraint Jacobian...:      392
Number of nonzeros in inequality constraint Jacobian.:        0
Number of nonzeros in Lagrangian Hessian.............:      190

Total number of variables............................:      196
                     variables with only lower bounds:        0
                variables with lower and upper bounds:      196
                     variables with only upper bounds:        0
Total number of equality constraints.................:      151
Total number of inequality constraints...............:        0
        inequality constraints with only lower bounds:        0
   inequality constraints with lower and upper bounds:        0
        inequality constraints with only upper bounds:        0

iter    objective    inf_pr   inf_du lg(mu)  ||d||  lg(rg) alpha_du alpha_pr  ls
   0  6.0926177e+07 2.00e+00 4.57e+01  -1.0 0.00e+00    -  0.00e+00 0.00e+00   0
   1  5.6143561e+07 1.75e+00 4.18e+01  -1.0 7.76e+01    -  2.87e-02 1.26e-01f  1
   2  3.8530597e+07 1.17e+00 3.04e+01  -1.0 9.57e+01    -  6.92e-02 3.30e-01f  1
   3  1.1220537e+07 2.41e-01 1.54e+01  -1.0 1.24e+02    -  1.37e-01 7.94e-01f  1
   4  2.5674230e+06 2.25e-03 7.27e+01  -1.0 1.16e+02    -  1.23e-01 9.91e-01f  1
   5  8.3713666e+05 4.50e-05 6.54e+03  -1.0 6.98e+01    -  2.00e-01 1.00e+00f  1
   6  3.0824351e+05 4.45e-07 9.83e+02  -1.0 6.11e+01    -  1.65e-01 9.90e-01f  1
   7  1.0688487e+05 5.97e-13 6.58e+04  -1.0 5.47e+01    -  4.08e-01 1.00e+00f  1
   8  2.5076053e+04 1.05e-06 4.03e+04  -1.0 3.81e+01    -  3.89e-01 1.00e+00f  1
   9 -8.7081953e+03 9.80e-08 2.13e+04  -1.0 4.70e+01    -  4.71e-01 1.00e+00f  1
iter    objective    inf_pr   inf_du lg(mu)  ||d||  lg(rg) alpha_du alpha_pr  ls
  10 -3.0608213e+04 2.84e-14 2.34e+05  -1.0 4.74e+01    -  5.14e-01 1.00e+00f  1
  11 -4.2051656e+04 1.39e-07 7.64e+04  -1.0 5.05e+01    -  6.74e-01 1.00e+00f  1
  12 -4.6923788e+04 8.88e-15 2.53e+05  -1.0 8.49e+01    -  2.32e-01 1.00e+00f  1
  13 -4.7737334e+04 8.00e-08 5.45e-03  -1.0 4.07e+01    -  1.00e+00 1.00e+00f  1
  14 -4.8108420e+04 7.11e-15 8.38e+03  -3.8 2.89e+01    -  8.25e-01 1.00e+00f  1
  15 -4.8185382e+04 4.85e-09 3.11e+02  -3.8 1.82e+01    -  9.63e-01 1.00e+00f  1
  16 -4.8196608e+04 4.90e-09 1.12e-03  -3.8 9.39e+00    -  1.00e+00 1.00e+00f  1
  17 -4.8198126e+04 7.11e-15 3.95e+07  -5.7 4.43e+00    -  1.93e-02 1.00e+00f  1
  18 -4.8201654e+04 1.30e-02 3.74e+06  -5.7 2.04e+00    -  3.84e-07 1.00e+00f  1
  19 -4.8198184e+04 1.90e-08 5.47e+00  -5.7 9.40e-01    -  1.00e+00 1.00e+00h  1
iter    objective    inf_pr   inf_du lg(mu)  ||d||  lg(rg) alpha_du alpha_pr  ls
  20 -4.8198185e+04 1.42e-14 8.77e-07  -5.7 4.46e-01    -  1.00e+00 1.00e+00h  1
  21 -4.8198188e+04 1.73e-09 2.53e-06  -8.6 2.24e-01    -  1.00e+00 1.00e+00f  1
  22 -4.8198188e+04 7.11e-15 6.82e+00  -8.6 6.90e-02    -  6.65e-01 1.00e+00h  1
  23 -4.8198188e+04 7.11e-15 1.73e-10  -8.6 9.24e-03    -  1.00e+00 1.00e+00h  1

Number of Iterations....: 23

                                   (scaled)                 (unscaled)
Objective...............:  -5.3868199612007786e+01   -4.8198188226976301e+04
Dual infeasibility......:   1.7338610428065753e-10    1.5513598282943974e-07
Constraint violation....:   7.1054273576010019e-15    7.1054273576010019e-15
Complementarity.........:   2.5059355876910065e-09    2.2421680325340987e-06
Overall NLP error.......:   2.5059355876910065e-09    2.2421680325340987e-06


Number of objective function evaluations             = 24
Number of objective gradient evaluations             = 24
Number of equality constraint evaluations            = 24
Number of inequality constraint evaluations          = 0
Number of equality constraint Jacobian evaluations   = 24
Number of inequality constraint Jacobian evaluations = 0
Number of Lagrangian Hessian evaluations             = 23
Total CPU secs in IPOPT (w/o function evaluations)   =      0.023
Total CPU secs in NLP function evaluations           =      0.003

EXIT: Optimal Solution Found.

************************ CUTEst statistics ************************


 Package used            :  IPOPT
 Problem                 :  DALLASM   
 # variables             =             196
 # constraints           =             151
 # objective functions   =        0.4900000E+02
 # objective gradients   =        0.2500000E+02
 # objective Hessians    =        0.2400000E+02
 # Hessian-vector prdct  =        0.0000000E+00
 # constraints functions =        0.5000000E+02
 # constraints gradients =        0.2600000E+02
 # constraints Hessians  =        0.2400000E+02
 Exit code               =               0
 Final f                 =  -0.4819819E+05
 Set up time             =            0.01 seconds
 Solve time              =            0.09 seconds


******************************************************************

System Time =       0.0219999999 s.
